Route #1: 112
Route #2: 53 105 40 58 137 13 117 95 94 6 147 89
Route #3: 146 27
Route #4: 28 111 132 69 1 101 70 122 30 20 128 131 32 90 126 63 11 7 46
Route #5: 52 127 31 88 148 62 10 108 107 19 123 124 60
Route #6: 18 83 118 5 84 61 16 141 44 119 91 98 92
Route #7: 76 116 77 3 79 129 78 34 135 35 136 71 103 9 51 33
Route #8: 26 149 109 12 138
Route #9: 106 82 48 47 36 143 49 64 66 65
Route #10: 50 102 81 120 121 29 24 134 150 80 68
Route #11: 110 4 139 39 56 75 133 22 74 72 73 21
Route #12: 96 99 104 59 93 85 100 37 97 87 144
Route #13: 42 142 14 38 140 86 113 17 45 125 8 114
Route #14: 2 115 57 15 43 145 41 23 67 25 55 130 54
cost: 1217.3516723195137
